c WARNING: for repeatability, setting FPU to use double precision
d VARIABLES            72338        
d CONSTRAINTS          288339       
c ============================[ Problem Statistics ]=============================
c |                                                                             |
c |  Number of variables:         72338                                         |
c |  Number of clauses:          288339                                         |
c |  Parse time:                   0.05 s                                       |
c |                                                                             |
c ============================[ Search Statistics ]==============================
c | Conflicts |          ORIGINAL         |          LEARNT          | Progress |
c |           |    Vars  Clauses Literals |    Limit  Clauses Lit/Cl |          |
c ===============================================================================
c |       100 |   52648   237513   580855 |    87088      100     73 | 27.219 % |
c |       250 |   52648   237513   580855 |    95796      250     95 | 27.219 % |
c |       475 |   52648   237513   580855 |   105376      475     95 | 27.219 % |
c |       812 |   52648   237513   580855 |   115914      812     87 | 27.219 % |
c |      1318 |   52648   237513   580855 |   127505     1318    107 | 27.219 % |
c |      2077 |   52648   237513   580855 |   140256     2077    102 | 27.219 % |
c |      3216 |   52648   237513   580855 |   154281     3216    130 | 27.219 % |
c |      4924 |   52648   237513   580855 |   169710     4924    127 | 27.219 % |
c |      7486 |   52648   237513   580855 |   186681     7486    134 | 27.219 % |
c |     11330 |   52648   237513   580855 |   205349    11330    133 | 27.219 % |
c |     17096 |   52648   237513   580855 |   225884    17096    137 | 27.219 % |
c |     25745 |   52647   237502   580829 |   248472    25739    130 | 27.221 % |
c |     38719 |   52645   237480   580777 |   273319    38705    131 | 27.224 % |
c |     58180 |   52645   237480   580777 |   300651    58166    126 | 27.224 % |
c ===============================================================================
c restarts              : 253
c conflicts             : 80527          (3245 /sec)
c decisions             : 275376         (0.00 % random) (11096 /sec)
c propagations          : 130147408      (5244168 /sec)
c conflict literals     : 10237846       (31.19 % deleted)
d RESTARTS             253
d FAILURES             80527        
d NODES                275376       
d BACKTRACKS           275376       
d PROPAGATIONS         130147408    
d NOGOODSIZE           127.14 
d MEMORY               74.00 
d TIME                 24.8176 

s UNSATISFIABLE
